certificates/rado_a15_c178_N29.cnf
c Rad2 upper bound instance: x1 + 15*x2 - x3 = 178, interval [1,29]
p cnf 29 112
1 3 12 0
-1 -3 -12 0
1 13 18 0
-1 -13 -18 0
2 4 12 0
-2 -4 -12 0
2 13 19 0
-2 -13 -19 0
3 5 12 0
-3 -5 -12 0
3 13 20 0
-3 -13 -20 0
4 6 12 0
-4 -6 -12 0
4 13 21 0
-4 -13 -21 0
5 7 12 0
-5 -7 -12 0
5 13 22 0
-5 -13 -22 0
6 8 12 0
-6 -8 -12 0
6 13 23 0
-6 -13 -23 0
7 9 12 0
-7 -9 -12 0
7 13 24 0
-7 -13 -24 0
8 10 12 0
-8 -10 -12 0
8 13 25 0
-8 -13 -25 0
9 11 12 0
-9 -11 -12 0
9 13 26 0
-9 -13 -26 0
10 12 0
-10 -12 0
10 13 27 0
-10 -13 -27 0
11 12 13 0
-11 -12 -13 0
11 13 28 0
-11 -13 -28 0
12 14 0
-12 -14 0
12 13 29 0
-12 -13 -29 0
12 13 15 0
-12 -13 -15 0
1 11 14 0
-1 -11 -14 0
12 14 16 0
-12 -14 -16 0
2 11 15 0
-2 -11 -15 0
12 15 17 0
-12 -15 -17 0
3 11 16 0
-3 -11 -16 0
12 16 18 0
-12 -16 -18 0
4 11 17 0
-4 -11 -17 0
12 17 19 0
-12 -17 -19 0
5 11 18 0
-5 -11 -18 0
12 18 20 0
-12 -18 -20 0
6 11 19 0
-6 -11 -19 0
12 19 21 0
-12 -19 -21 0
7 11 20 0
-7 -11 -20 0
12 20 22 0
-12 -20 -22 0
8 11 21 0
-8 -11 -21 0
12 21 23 0
-12 -21 -23 0
9 11 22 0
-9 -11 -22 0
12 22 24 0
-12 -22 -24 0
10 11 23 0
-10 -11 -23 0
12 23 25 0
-12 -23 -25 0
11 24 0
-11 -24 0
12 24 26 0
-12 -24 -26 0
11 12 25 0
-11 -12 -25 0
12 25 27 0
-12 -25 -27 0
11 13 26 0
-11 -13 -26 0
12 26 28 0
-12 -26 -28 0
11 14 27 0
-11 -14 -27 0
12 27 29 0
-12 -27 -29 0
11 15 28 0
-11 -15 -28 0
1 10 29 0
-1 -10 -29 0
11 16 29 0
-11 -16 -29 0
