certificates/rado_a15_c178_N29.drat
-27 -29 0
d -27 -12 -29 0
13 12 -28 0
12 -28 -29 0
-12 -29 0
13 -29 0
12 -29 0
d 12 -28 -29 0
-29 0
12 -13 0
-13 0
12 0
-10 0
-14 0
1 0
27 0
-3 0
-25 0
20 0
8 0
-22 0
-18 0
-6 0
5 0
23 0
-7 0
-21 0
24 0
4 0
-11 0
-26 0
-2 0
28 0
0
